p cnf 27 30
1 4 7 0
2 5 8 0
3 6 9 0
10 -1 -4 0
-10 1 0
-10 -4 0
11 -2 -5 0
-11 2 0
-11 -5 0
12 -3 -6 0
-12 3 0
-12 -6 0
10 11 12 0
13 -1 -7 0
-13 1 0
-13 -7 0
14 -2 -8 0
-14 2 0
-14 -8 0
15 -3 -9 0
-15 3 0
-15 -9 0
13 14 15 0
16 -4 -1 0
-16 4 0
-16 -1 0
17 -5 -2 0
-17 5 0
-17 -2 0
18 -6 -3 0
-18 6 0
-18 -3 0
16 17 18 0
19 -4 -7 0
-19 4 0
-19 -7 0
20 -5 -8 0
-20 5 0
-20 -8 0
21 -6 -9 0
-21 6 0
-21 -9 0
19 20 21 0
22 -7 -1 0
-22 7 0
-22 -1 0
23 -8 -2 0
-23 8 0
-23 -2 0
24 -9 -3 0
-24 9 0
-24 -3 0
22 23 24 0
25 -7 -4 0
-25 7 0
-25 -4 0
26 -8 -5 0
-26 8 0
-26 -5 0
27 -9 -6 0
-27 9 0
-27 -6 0
25 26 27 0
